32      4       
10      10      10      10      
0       0       0       0       0       4       2       4       5       7       
5       0       1       1       1       1       3       
9       1       4       0       7       2       6       13      
1       3       0       3       2       1       6       
2       5       5       0       5       1       6       
2       6       0       6       4       4       8       10      16      20      
6       4       0       4       5       2       9       14      
9       3       0       3       4       3       11      14      17      
1       4       2       0       2       3       11      17      20      
5       3       0       4       5       3       14      15      19      
3       4       3       2       0       2       12      21      
3       0       1       6       4       2       15      19      
5       0       4       5       7       3       18      24      25      
9       0       2       5       4       2       18      21      
6       0       7       2       1       2       18      25      
5       6       0       3       4       4       22      24      26      27      
8       0       4       3       5       1       18      
9       0       5       5       3       4       22      26      27      28      
8       0       4       5       2       3       23      24      26      
9       4       0       5       2       2       21      29      
10      2       0       5       8       2       24      26      
9       5       4       4       0       1       23      
6       4       4       0       4       2       29      31      
2       0       5       5       4       2       28      31      
8       5       7       1       0       1       26      
6       2       4       0       2       2       30      31      
2       4       3       6       0       2       30      31      
1       5       5       5       0       1       30      
9       0       8       4       4       1       30      
3       0       3       4       5       1       32      
8       6       3       0       6       1       32      
0       0       0       0       0       0       
